output_file = "12-2-BC-100-2.00-539.csv";

n_days = 100;
n_shelf_types = 2;
n_crops = 2;

num_shelves = [
    8, 4
];


crop_shelf_type_compatible = [
    [1, 1],
[1, 1]
];

crop_growth_days = [15, 15];

n_configurations = 3;

crop_growth_day_config = [
    [1, 1, 1, 2, 2, 2, 2, 2, 2, 2, 2, 2, 2, 2, 2],
[1, 1, 1, 3, 3, 3, 3, 3, 3, 3, 3, 3, 3, 3, 3]
];

capacity = [
    [12, 12, 12],
[12, 12, 12]
];

demand = [
    [0, 0, 0, 0, 0, 0, 0, 0, 0, 0, 0, 0, 0, 0, 0, 26, 24, 0, 0, 0, 0, 0, 16, 0, 0, 50, 40, 0, 0, 0, 22, 0, 0, 0, 10, 0, 18, 26, 0, 0, 0, 10, 0, 18, 0, 0, 0, 0, 12, 0, 26, 16, 0, 38, 40, 0, 0, 18, 0, 0, 40, 0, 0, 20, 10, 0, 0, 0, 0, 12, 14, 0, 0, 36, 0, 0, 0, 0, 18, 16, 0, 0, 30, 0, 0, 0, 28, 0, 0, 0, 12, 26, 0, 0, 40, 60, 42, 0, 12, 0],
[0, 0, 0, 0, 0, 0, 0, 0, 0, 0, 0, 0, 0, 0, 0, 0, 0, 0, 0, 0, 16, 0, 0, 0, 26, 56, 0, 0, 16, 14, 0, 0, 0, 20, 0, 0, 0, 30, 22, 58, 0, 12, 0, 0, 24, 34, 0, 30, 0, 0, 20, 0, 0, 34, 0, 0, 26, 0, 0, 0, 0, 0, 0, 0, 0, 0, 0, 30, 0, 16, 0, 18, 18, 0, 60, 0, 0, 0, 0, 20, 0, 0, 24, 0, 0, 0, 0, 0, 0, 0, 0, 0, 10, 0, 24, 26, 32, 0, 18, 0]
];


missed_demand_penalty = [
    [0, 0, 0, 0, 0, 0, 0, 0, 0, 0, 0, 0, 0, 0, 0, 1, 1, 0, 0, 0, 0, 0, 1, 0, 0, 1, 1, 0, 0, 0, 1, 0, 0, 0, 1, 0, 1, 1, 0, 0, 0, 1, 0, 1, 0, 0, 0, 0, 1, 0, 1, 1, 0, 1, 1, 0, 0, 1, 0, 0, 1, 0, 0, 1, 1, 0, 0, 0, 0, 1, 1, 0, 0, 1, 0, 0, 0, 0, 1, 1, 0, 0, 1, 0, 0, 0, 1, 0, 0, 0, 1, 1, 0, 0, 1, 1, 1, 0, 1, 0],
[0, 0, 0, 0, 0, 0, 0, 0, 0, 0, 0, 0, 0, 0, 0, 0, 0, 0, 0, 0, 1, 0, 0, 0, 1, 1, 0, 0, 1, 1, 0, 0, 0, 1, 0, 0, 0, 1, 1, 1, 0, 1, 0, 0, 1, 1, 0, 1, 0, 0, 1, 0, 0, 1, 0, 0, 1, 0, 0, 0, 0, 0, 0, 0, 0, 0, 0, 1, 0, 1, 0, 1, 1, 0, 1, 0, 0, 0, 0, 1, 0, 0, 1, 0, 0, 0, 0, 0, 0, 0, 0, 0, 1, 0, 1, 1, 1, 0, 1, 0]
];